20
587 233 220
106 55 38
69 50 48
106 63 57
71 66 51
62 41 36
75 49 39
90 64 53
96 79 55
83 75 67
58 48 30
81 59 24
71 56 41
111 76 40
113 27 26
50 41 36
57 55 50
42 25 21
115 44 29
78 54 52
87 68 31
thpack7_98